unsat
(define-fun InvF ((i Int) (sn Int) (size Int) (v1 Int) (v2 Int) (v3 Int)) Bool (and (or (not (>= (+ i (* (- 1) size)) 1)) (= sn size) (= sn 0)) (= i (+ 1 sn))))
0.77user 0.01system 0:00.78elapsed 99%CPU (0avgtext+0avgdata 34656maxresident)k
8inputs+8outputs (0major+3400minor)pagefaults 0swaps
